p edge 100 2100
e 1 2
e 1 3
e 1 4
e 1 5
e 1 6
e 1 7
e 1 8
e 1 9
e 1 10
e 1 11
e 1 12
e 1 13
e 1 14
e 1 15
e 1 16
e 1 17
e 1 18
e 1 19
e 1 20
e 1 21
e 1 22
e 1 23
e 1 24
e 1 25
e 1 26
e 1 27
e 1 28
e 1 29
e 1 30
e 1 31
e 1 32
e 1 33
e 1 34
e 1 35
e 1 36
e 1 37
e 1 38
e 1 39
e 1 40
e 1 41
e 1 42
e 1 43
e 1 44
e 1 45
e 1 46
e 1 47
e 1 48
e 1 49
e 1 50
e 1 51
e 1 52
e 1 53
e 1 54
e 1 55
e 1 56
e 1 57
e 1 58
e 1 59
e 1 60
e 1 61
e 1 62
e 1 63
e 1 64
e 1 65
e 1 66
e 1 67
e 1 68
e 1 69
e 1 70
e 1 71
e 1 72
e 1 73
e 1 74
e 1 75
e 1 76
e 1 77
e 1 78
e 1 79
e 1 80
e 1 81
e 1 82
e 1 83
e 1 84
e 1 85
e 1 86
e 1 87
e 1 88
e 1 89
e 1 90
e 1 91
e 1 92
e 1 93
e 1 94
e 1 95
e 1 96
e 1 97
e 1 98
e 1 99
e 1 100
e 2 72
e 2 73
e 2 74
e 2 75
e 2 76
e 2 77
e 2 79
e 2 80
e 2 81
e 2 82
e 2 84
e 2 85
e 2 86
e 2 87
e 2 88
e 2 90
e 2 91
e 2 93
e 2 95
e 2 96
e 2 99
e 2 100
e 3 72
e 3 73
e 3 74
e 3 75
e 3 76
e 3 77
e 3 78
e 3 82
e 3 83
e 3 84
e 3 85
e 3 86
e 3 87
e 3 89
e 3 90
e 3 92
e 3 93
e 3 94
e 3 95
e 3 96
e 3 97
e 3 98
e 3 99
e 3 100
e 4 72
e 4 73
e 4 74
e 4 77
e 4 78
e 4 79
e 4 80
e 4 81
e 4 83
e 4 84
e 4 85
e 4 87
e 4 88
e 4 89
e 4 90
e 4 92
e 4 93
e 4 94
e 4 97
e 4 98
e 4 100
e 5 72
e 5 73
e 5 74
e 5 75
e 5 76
e 5 77
e 5 79
e 5 80
e 5 81
e 5 82
e 5 83
e 5 84
e 5 85
e 5 86
e 5 87
e 5 88
e 5 89
e 5 91
e 5 93
e 5 94
e 5 97
e 5 100
e 6 72
e 6 73
e 6 74
e 6 75
e 6 76
e 6 77
e 6 78
e 6 79
e 6 81
e 6 82
e 6 83
e 6 84
e 6 86
e 6 87
e 6 88
e 6 89
e 6 90
e 6 92
e 6 96
e 6 97
e 6 98
e 6 99
e 6 100
e 7 72
e 7 73
e 7 74
e 7 75
e 7 76
e 7 77
e 7 78
e 7 79
e 7 80
e 7 81
e 7 82
e 7 83
e 7 85
e 7 86
e 7 87
e 7 88
e 7 89
e 7 90
e 7 91
e 7 92
e 7 93
e 7 94
e 7 95
e 7 96
e 7 97
e 7 99
e 7 100
e 8 72
e 8 73
e 8 74
e 8 75
e 8 76
e 8 77
e 8 78
e 8 79
e 8 80
e 8 81
e 8 82
e 8 83
e 8 85
e 8 87
e 8 88
e 8 90
e 8 91
e 8 92
e 8 93
e 8 94
e 8 96
e 8 99
e 8 100
e 9 72
e 9 73
e 9 75
e 9 76
e 9 77
e 9 80
e 9 81
e 9 82
e 9 83
e 9 84
e 9 85
e 9 86
e 9 87
e 9 88
e 9 89
e 9 91
e 9 92
e 9 93
e 9 94
e 9 95
e 9 96
e 9 97
e 10 72
e 10 73
e 10 74
e 10 75
e 10 76
e 10 77
e 10 78
e 10 79
e 10 80
e 10 81
e 10 82
e 10 83
e 10 84
e 10 85
e 10 86
e 10 87
e 10 88
e 10 89
e 10 90
e 10 91
e 10 92
e 10 93
e 10 94
e 10 95
e 10 96
e 10 98
e 10 99
e 10 100
e 11 72
e 11 73
e 11 74
e 11 75
e 11 76
e 11 77
e 11 78
e 11 79
e 11 80
e 11 81
e 11 82
e 11 83
e 11 84
e 11 86
e 11 88
e 11 89
e 11 90
e 11 91
e 11 92
e 11 96
e 11 97
e 11 99
e 11 100
e 12 72
e 12 73
e 12 74
e 12 75
e 12 76
e 12 77
e 12 78
e 12 79
e 12 80
e 12 81
e 12 82
e 12 83
e 12 84
e 12 85
e 12 89
e 12 90
e 12 91
e 12 93
e 12 94
e 12 95
e 12 96
e 12 97
e 12 98
e 12 100
e 13 72
e 13 73
e 13 74
e 13 75
e 13 76
e 13 77
e 13 78
e 13 79
e 13 80
e 13 81
e 13 82
e 13 83
e 13 84
e 13 85
e 13 86
e 13 87
e 13 88
e 13 89
e 13 90
e 13 91
e 13 92
e 13 93
e 13 94
e 13 96
e 13 98
e 13 99
e 13 100
e 14 72
e 14 73
e 14 74
e 14 75
e 14 76
e 14 78
e 14 79
e 14 80
e 14 81
e 14 83
e 14 84
e 14 85
e 14 86
e 14 87
e 14 88
e 14 91
e 14 92
e 14 93
e 14 94
e 14 98
e 14 99
e 14 100
e 15 72
e 15 73
e 15 74
e 15 75
e 15 76
e 15 77
e 15 78
e 15 79
e 15 80
e 15 81
e 15 82
e 15 83
e 15 84
e 15 85
e 15 86
e 15 87
e 15 88
e 15 90
e 15 91
e 15 92
e 15 93
e 15 98
e 15 99
e 16 72
e 16 73
e 16 74
e 16 75
e 16 76
e 16 77
e 16 78
e 16 79
e 16 80
e 16 81
e 16 82
e 16 83
e 16 84
e 16 85
e 16 86
e 16 87
e 16 88
e 16 91
e 16 93
e 16 96
e 16 97
e 16 99
e 16 100
e 17 72
e 17 73
e 17 74
e 17 75
e 17 76
e 17 77
e 17 78
e 17 79
e 17 80
e 17 81
e 17 82
e 17 83
e 17 84
e 17 86
e 17 87
e 17 88
e 17 91
e 17 92
e 17 93
e 17 94
e 17 95
e 17 98
e 17 99
e 18 72
e 18 73
e 18 74
e 18 75
e 18 76
e 18 77
e 18 80
e 18 82
e 18 83
e 18 84
e 18 89
e 18 90
e 18 95
e 18 98
e 18 99
e 19 72
e 19 73
e 19 74
e 19 75
e 19 76
e 19 77
e 19 78
e 19 79
e 19 80
e 19 81
e 19 82
e 19 83
e 19 84
e 19 86
e 19 87
e 19 88
e 19 89
e 19 90
e 19 91
e 19 92
e 19 94
e 19 95
e 19 96
e 19 97
e 20 72
e 20 73
e 20 74
e 20 75
e 20 76
e 20 77
e 20 78
e 20 79
e 20 80
e 20 81
e 20 82
e 20 83
e 20 84
e 20 85
e 20 86
e 20 87
e 20 88
e 20 89
e 20 90
e 20 91
e 20 93
e 20 94
e 20 97
e 20 99
e 20 100
e 21 72
e 21 73
e 21 74
e 21 75
e 21 76
e 21 77
e 21 78
e 21 79
e 21 80
e 21 81
e 21 82
e 21 84
e 21 85
e 21 86
e 21 87
e 21 89
e 21 90
e 21 91
e 21 92
e 21 93
e 21 94
e 21 96
e 21 97
e 21 98
e 21 99
e 21 100
e 22 72
e 22 73
e 22 74
e 22 75
e 22 76
e 22 77
e 22 78
e 22 79
e 22 81
e 22 82
e 22 83
e 22 84
e 22 85
e 22 86
e 22 87
e 22 88
e 22 90
e 22 93
e 22 94
e 22 95
e 22 96
e 22 98
e 22 99
e 22 100
e 23 72
e 23 73
e 23 74
e 23 75
e 23 76
e 23 77
e 23 78
e 23 79
e 23 80
e 23 81
e 23 82
e 23 83
e 23 84
e 23 85
e 23 86
e 23 88
e 23 89
e 23 90
e 23 91
e 23 92
e 23 93
e 23 95
e 23 99
e 23 100
e 24 72
e 24 73
e 24 74
e 24 75
e 24 76
e 24 77
e 24 78
e 24 79
e 24 80
e 24 82
e 24 83
e 24 84
e 24 85
e 24 86
e 24 88
e 24 89
e 24 90
e 24 96
e 24 97
e 24 98
e 24 100
e 25 72
e 25 73
e 25 74
e 25 75
e 25 76
e 25 77
e 25 78
e 25 79
e 25 80
e 25 81
e 25 82
e 25 83
e 25 84
e 25 86
e 25 87
e 25 88
e 25 89
e 25 90
e 25 91
e 25 92
e 25 94
e 25 95
e 25 96
e 25 100
e 26 72
e 26 73
e 26 74
e 26 75
e 26 76
e 26 77
e 26 78
e 26 79
e 26 80
e 26 81
e 26 82
e 26 84
e 26 85
e 26 86
e 26 87
e 26 88
e 26 89
e 26 90
e 26 92
e 26 93
e 26 95
e 26 97
e 26 98
e 26 99
e 26 100
e 27 72
e 27 74
e 27 75
e 27 76
e 27 77
e 27 78
e 27 79
e 27 80
e 27 81
e 27 82
e 27 83
e 27 84
e 27 85
e 27 86
e 27 88
e 27 89
e 27 91
e 27 93
e 27 95
e 27 96
e 27 97
e 28 72
e 28 73
e 28 74
e 28 75
e 28 76
e 28 77
e 28 78
e 28 79
e 28 80
e 28 81
e 28 82
e 28 83
e 28 84
e 28 86
e 28 87
e 28 88
e 28 91
e 28 92
e 28 93
e 28 94
e 28 95
e 28 96
e 28 100
e 29 72
e 29 73
e 29 74
e 29 75
e 29 77
e 29 78
e 29 79
e 29 80
e 29 81
e 29 82
e 29 83
e 29 84
e 29 85
e 29 86
e 29 87
e 29 88
e 29 89
e 29 91
e 29 92
e 29 94
e 29 95
e 29 96
e 29 97
e 29 98
e 29 99
e 30 72
e 30 73
e 30 74
e 30 75
e 30 76
e 30 77
e 30 78
e 30 79
e 30 80
e 30 81
e 30 82
e 30 83
e 30 86
e 30 87
e 30 89
e 30 90
e 30 91
e 30 92
e 30 95
e 30 96
e 30 98
e 31 72
e 31 73
e 31 74
e 31 75
e 31 76
e 31 77
e 31 78
e 31 79
e 31 81
e 31 82
e 31 83
e 31 84
e 31 85
e 31 86
e 31 88
e 31 89
e 31 90
e 31 93
e 31 94
e 31 97
e 31 99
e 31 100
e 32 72
e 32 73
e 32 74
e 32 75
e 32 76
e 32 77
e 32 78
e 32 79
e 32 80
e 32 84
e 32 85
e 32 86
e 32 88
e 32 90
e 32 91
e 32 92
e 32 93
e 32 95
e 32 96
e 32 97
e 32 98
e 32 99
e 32 100
e 33 72
e 33 73
e 33 74
e 33 75
e 33 76
e 33 77
e 33 78
e 33 79
e 33 80
e 33 81
e 33 82
e 33 83
e 33 85
e 33 86
e 33 87
e 33 88
e 33 89
e 33 90
e 33 91
e 33 92
e 33 93
e 33 94
e 33 96
e 33 97
e 33 98
e 34 72
e 34 73
e 34 74
e 34 75
e 34 76
e 34 77
e 34 78
e 34 79
e 34 80
e 34 81
e 34 82
e 34 83
e 34 85
e 34 86
e 34 87
e 34 89
e 34 90
e 34 91
e 34 92
e 34 95
e 34 96
e 34 97
e 35 72
e 35 73
e 35 74
e 35 75
e 35 76
e 35 77
e 35 78
e 35 79
e 35 80
e 35 82
e 35 83
e 35 84
e 35 85
e 35 86
e 35 88
e 35 89
e 35 90
e 35 91
e 35 93
e 35 94
e 35 95
e 35 96
e 35 97
e 35 98
e 35 100
e 36 72
e 36 73
e 36 74
e 36 75
e 36 76
e 36 77
e 36 78
e 36 79
e 36 80
e 36 82
e 36 83
e 36 84
e 36 85
e 36 86
e 36 87
e 36 88
e 36 93
e 36 94
e 36 95
e 36 96
e 36 97
e 36 98
e 36 100
e 37 72
e 37 73
e 37 74
e 37 75
e 37 76
e 37 77
e 37 78
e 37 80
e 37 81
e 37 82
e 37 84
e 37 85
e 37 86
e 37 87
e 37 89
e 37 90
e 37 93
e 37 95
e 37 96
e 37 98
e 37 99
e 37 100
e 38 72
e 38 73
e 38 74
e 38 75
e 38 76
e 38 77
e 38 78
e 38 80
e 38 81
e 38 82
e 38 83
e 38 85
e 38 86
e 38 87
e 38 89
e 38 90
e 38 92
e 38 93
e 38 94
e 38 96
e 38 97
e 39 72
e 39 73
e 39 74
e 39 75
e 39 76
e 39 77
e 39 78
e 39 80
e 39 81
e 39 83
e 39 84
e 39 85
e 39 87
e 39 89
e 39 90
e 39 91
e 39 92
e 39 94
e 39 95
e 39 97
e 39 98
e 40 72
e 40 73
e 40 74
e 40 75
e 40 76
e 40 77
e 40 78
e 40 79
e 40 81
e 40 82
e 40 83
e 40 84
e 40 85
e 40 86
e 40 87
e 40 88
e 40 89
e 40 91
e 40 92
e 40 94
e 40 95
e 40 96
e 40 99
e 40 100
e 41 72
e 41 73
e 41 74
e 41 75
e 41 76
e 41 77
e 41 78
e 41 80
e 41 81
e 41 82
e 41 83
e 41 84
e 41 85
e 41 86
e 41 87
e 41 88
e 41 89
e 41 90
e 41 91
e 41 92
e 41 93
e 41 95
e 41 96
e 41 97
e 41 98
e 41 99
e 41 100
e 42 72
e 42 73
e 42 74
e 42 75
e 42 76
e 42 77
e 42 78
e 42 79
e 42 80
e 42 81
e 42 82
e 42 83
e 42 85
e 42 87
e 42 88
e 42 89
e 42 92
e 42 93
e 42 94
e 42 98
e 42 99
e 42 100
e 43 72
e 43 73
e 43 74
e 43 76
e 43 77
e 43 78
e 43 79
e 43 80
e 43 81
e 43 83
e 43 85
e 43 86
e 43 87
e 43 88
e 43 90
e 43 91
e 43 94
e 43 96
e 43 97
e 44 72
e 44 73
e 44 74
e 44 76
e 44 77
e 44 78
e 44 79
e 44 80
e 44 81
e 44 83
e 44 85
e 44 86
e 44 87
e 44 88
e 44 91
e 44 92
e 44 93
e 44 95
e 44 97
e 45 72
e 45 73
e 45 74
e 45 75
e 45 76
e 45 77
e 45 78
e 45 79
e 45 80
e 45 81
e 45 82
e 45 83
e 45 84
e 45 85
e 45 86
e 45 87
e 45 89
e 45 90
e 45 91
e 45 92
e 45 93
e 45 94
e 45 95
e 45 97
e 45 98
e 45 99
e 45 100
e 46 72
e 46 73
e 46 74
e 46 75
e 46 76
e 46 78
e 46 79
e 46 81
e 46 82
e 46 83
e 46 84
e 46 85
e 46 86
e 46 90
e 46 91
e 46 92
e 46 93
e 46 94
e 46 95
e 46 99
e 46 100
e 47 72
e 47 73
e 47 74
e 47 75
e 47 77
e 47 78
e 47 80
e 47 81
e 47 82
e 47 84
e 47 85
e 47 87
e 47 88
e 47 89
e 47 90
e 47 94
e 47 95
e 47 97
e 47 99
e 48 73
e 48 74
e 48 75
e 48 76
e 48 77
e 48 78
e 48 79
e 48 80
e 48 81
e 48 82
e 48 84
e 48 85
e 48 86
e 48 87
e 48 88
e 48 89
e 48 90
e 48 91
e 48 92
e 48 93
e 48 94
e 48 95
e 48 96
e 48 98
e 48 99
e 48 100
e 49 72
e 49 73
e 49 74
e 49 75
e 49 76
e 49 78
e 49 79
e 49 80
e 49 81
e 49 82
e 49 83
e 49 86
e 49 87
e 49 88
e 49 89
e 49 91
e 49 92
e 49 93
e 49 95
e 49 97
e 49 100
e 50 72
e 50 73
e 50 74
e 50 75
e 50 76
e 50 77
e 50 78
e 50 79
e 50 80
e 50 81
e 50 83
e 50 84
e 50 85
e 50 86
e 50 87
e 50 88
e 50 89
e 50 90
e 50 91
e 50 93
e 50 94
e 50 95
e 50 97
e 50 99
e 50 100
e 51 72
e 51 78
e 51 79
e 51 82
e 51 84
e 51 85
e 51 90
e 51 92
e 51 94
e 51 98
e 51 99
e 52 72
e 52 73
e 52 74
e 52 75
e 52 76
e 52 77
e 52 78
e 52 79
e 52 80
e 52 85
e 52 86
e 52 87
e 52 91
e 52 93
e 52 94
e 52 95
e 52 96
e 52 97
e 52 98
e 52 99
e 52 100
e 53 72
e 53 73
e 53 74
e 53 75
e 53 76
e 53 77
e 53 78
e 53 79
e 53 80
e 53 82
e 53 83
e 53 84
e 53 87
e 53 88
e 53 89
e 53 90
e 53 91
e 53 92
e 53 93
e 53 94
e 53 95
e 53 96
e 53 97
e 53 98
e 53 99
e 54 72
e 54 73
e 54 74
e 54 75
e 54 76
e 54 77
e 54 78
e 54 79
e 54 80
e 54 81
e 54 82
e 54 84
e 54 85
e 54 86
e 54 87
e 54 88
e 54 89
e 54 91
e 54 92
e 54 94
e 54 95
e 54 96
e 54 97
e 54 98
e 54 99
e 54 100
e 55 72
e 55 73
e 55 74
e 55 75
e 55 76
e 55 77
e 55 79
e 55 80
e 55 81
e 55 82
e 55 84
e 55 85
e 55 86
e 55 87
e 55 88
e 55 89
e 55 90
e 55 91
e 55 92
e 55 93
e 55 94
e 55 95
e 55 97
e 55 98
e 55 99
e 56 72
e 56 73
e 56 75
e 56 76
e 56 77
e 56 78
e 56 79
e 56 80
e 56 81
e 56 82
e 56 83
e 56 84
e 56 85
e 56 87
e 56 88
e 56 89
e 56 90
e 56 91
e 56 92
e 56 94
e 56 95
e 56 96
e 56 97
e 56 98
e 56 99
e 56 100
e 57 72
e 57 73
e 57 74
e 57 75
e 57 76
e 57 77
e 57 79
e 57 80
e 57 81
e 57 82
e 57 83
e 57 84
e 57 85
e 57 86
e 57 87
e 57 88
e 57 90
e 57 91
e 57 92
e 57 94
e 57 95
e 57 96
e 57 97
e 57 98
e 57 100
e 58 72
e 58 73
e 58 74
e 58 75
e 58 76
e 58 77
e 58 78
e 58 79
e 58 80
e 58 81
e 58 84
e 58 85
e 58 88
e 58 90
e 58 91
e 58 92
e 58 93
e 58 95
e 58 96
e 58 97
e 58 98
e 58 99
e 59 72
e 59 73
e 59 74
e 59 75
e 59 76
e 59 77
e 59 78
e 59 79
e 59 80
e 59 81
e 59 82
e 59 83
e 59 84
e 59 85
e 59 86
e 59 88
e 59 89
e 59 90
e 59 92
e 59 93
e 59 94
e 59 96
e 59 97
e 59 98
e 59 99
e 60 72
e 60 73
e 60 74
e 60 75
e 60 76
e 60 77
e 60 78
e 60 79
e 60 80
e 60 81
e 60 82
e 60 83
e 60 84
e 60 87
e 60 88
e 60 89
e 60 90
e 60 91
e 60 92
e 60 95
e 60 96
e 60 97
e 60 98
e 60 99
e 60 100
e 61 72
e 61 73
e 61 74
e 61 75
e 61 76
e 61 77
e 61 78
e 61 79
e 61 80
e 61 81
e 61 82
e 61 83
e 61 85
e 61 86
e 61 89
e 61 90
e 61 92
e 61 95
e 61 97
e 61 98
e 62 72
e 62 73
e 62 74
e 62 75
e 62 76
e 62 77
e 62 78
e 62 79
e 62 80
e 62 81
e 62 82
e 62 83
e 62 84
e 62 85
e 62 86
e 62 87
e 62 88
e 62 89
e 62 90
e 62 92
e 62 93
e 62 95
e 62 96
e 62 97
e 62 98
e 62 99
e 62 100
e 63 72
e 63 73
e 63 74
e 63 75
e 63 76
e 63 77
e 63 78
e 63 79
e 63 81
e 63 83
e 63 85
e 63 86
e 63 87
e 63 89
e 63 90
e 63 91
e 63 92
e 63 93
e 63 94
e 63 95
e 63 96
e 63 97
e 63 99
e 64 72
e 64 73
e 64 74
e 64 75
e 64 76
e 64 77
e 64 78
e 64 79
e 64 80
e 64 81
e 64 82
e 64 83
e 64 84
e 64 87
e 64 88
e 64 89
e 64 90
e 64 91
e 64 92
e 64 93
e 64 94
e 64 95
e 64 96
e 64 98
e 64 99
e 64 100
e 65 72
e 65 73
e 65 74
e 65 75
e 65 77
e 65 78
e 65 79
e 65 80
e 65 81
e 65 82
e 65 83
e 65 84
e 65 86
e 65 87
e 65 89
e 65 93
e 65 95
e 65 99
e 66 72
e 66 73
e 66 74
e 66 75
e 66 76
e 66 77
e 66 78
e 66 79
e 66 80
e 66 81
e 66 82
e 66 83
e 66 84
e 66 85
e 66 87
e 66 89
e 66 91
e 66 92
e 66 96
e 66 100
e 67 72
e 67 73
e 67 74
e 67 75
e 67 76
e 67 77
e 67 78
e 67 79
e 67 80
e 67 81
e 67 82
e 67 83
e 67 84
e 67 85
e 67 86
e 67 88
e 67 90
e 67 91
e 67 94
e 67 95
e 67 96
e 67 98
e 67 99
e 68 72
e 68 73
e 68 74
e 68 75
e 68 76
e 68 77
e 68 78
e 68 79
e 68 80
e 68 81
e 68 83
e 68 84
e 68 86
e 68 87
e 68 88
e 68 89
e 68 94
e 68 96
e 68 100
e 69 72
e 69 73
e 69 74
e 69 75
e 69 76
e 69 79
e 69 81
e 69 82
e 69 83
e 69 84
e 69 85
e 69 86
e 69 87
e 69 88
e 69 89
e 69 90
e 69 93
e 69 94
e 69 95
e 69 96
e 69 97
e 69 98
e 70 72
e 70 73
e 70 74
e 70 75
e 70 76
e 70 77
e 70 78
e 70 79
e 70 80
e 70 81
e 70 82
e 70 83
e 70 84
e 70 85
e 70 87
e 70 88
e 70 89
e 70 91
e 70 92
e 70 93
e 70 94
e 70 96
e 70 98
e 70 99
e 71 72
e 71 73
e 71 74
e 71 75
e 71 76
e 71 78
e 71 79
e 71 80
e 71 82
e 71 83
e 71 84
e 71 85
e 71 86
e 71 88
e 71 89
e 71 90
e 71 91
e 71 92
e 71 93
e 71 94
e 71 97
e 71 98
e 71 100
e 72 73
e 72 74
e 72 75
e 72 76
e 72 77
e 72 78
e 72 79
e 72 80
e 72 81
e 72 82
e 72 83
e 72 84
e 72 85
e 72 86
e 72 87
e 72 88
e 72 89
e 72 90
e 72 91
e 72 92
e 72 93
e 72 94
e 72 95
e 72 96
e 72 97
e 72 98
e 72 99
e 72 100
e 73 74
e 73 75
e 73 76
e 73 77
e 73 78
e 73 79
e 73 80
e 73 81
e 73 82
e 73 83
e 73 84
e 73 85
e 73 86
e 73 87
e 73 88
e 73 89
e 73 90
e 73 91
e 73 92
e 73 93
e 73 94
e 73 95
e 73 97
e 73 98
e 73 99
e 73 100
e 74 75
e 74 76
e 74 77
e 74 78
e 74 79
e 74 80
e 74 81
e 74 82
e 74 83
e 74 84
e 74 85
e 74 86
e 74 87
e 74 88
e 74 89
e 74 90
e 74 91
e 74 92
e 74 93
e 74 94
e 74 95
e 74 96
e 74 97
e 74 98
e 74 99
e 74 100
e 75 76
e 75 77
e 75 78
e 75 79
e 75 80
e 75 81
e 75 82
e 75 83
e 75 84
e 75 85
e 75 86
e 75 87
e 75 88
e 75 89
e 75 90
e 75 91
e 75 92
e 75 93
e 75 94
e 75 95
e 75 96
e 75 98
e 75 99
e 75 100
e 76 77
e 76 78
e 76 79
e 76 80
e 76 81
e 76 82
e 76 83
e 76 84
e 76 85
e 76 86
e 76 87
e 76 88
e 76 89
e 76 90
e 76 91
e 76 92
e 76 93
e 76 94
e 76 95
e 76 96
e 76 97
e 76 98
e 76 99
e 76 100
e 77 78
e 77 79
e 77 80
e 77 81
e 77 82
e 77 83
e 77 84
e 77 85
e 77 86
e 77 87
e 77 88
e 77 89
e 77 90
e 77 91
e 77 92
e 77 93
e 77 94
e 77 95
e 77 96
e 77 97
e 77 98
e 77 99
e 77 100
e 78 79
e 78 80
e 78 81
e 78 82
e 78 83
e 78 84
e 78 85
e 78 86
e 78 87
e 78 88
e 78 89
e 78 90
e 78 91
e 78 92
e 78 93
e 78 94
e 78 95
e 78 96
e 78 97
e 78 98
e 78 99
e 79 80
e 79 81
e 79 82
e 79 83
e 79 84
e 79 85
e 79 86
e 79 87
e 79 88
e 79 89
e 79 90
e 79 91
e 79 92
e 79 93
e 79 94
e 79 95
e 79 96
e 79 97
e 79 98
e 79 99
e 79 100
e 80 81
e 80 82
e 80 83
e 80 84
e 80 85
e 80 86
e 80 87
e 80 88
e 80 89
e 80 90
e 80 91
e 80 92
e 80 93
e 80 94
e 80 95
e 80 96
e 80 97
e 80 98
e 80 99
e 81 82
e 81 83
e 81 84
e 81 85
e 81 86
e 81 87
e 81 88
e 81 89
e 81 90
e 81 91
e 81 92
e 81 93
e 81 94
e 81 95
e 81 96
e 81 97
e 81 98
e 81 99
e 81 100
e 82 83
e 82 84
e 82 85
e 82 86
e 82 87
e 82 88
e 82 89
e 82 90
e 82 91
e 82 92
e 82 93
e 82 94
e 82 95
e 82 96
e 82 97
e 82 98
e 82 99
e 82 100
e 83 84
e 83 85
e 83 86
e 83 87
e 83 88
e 83 89
e 83 90
e 83 91
e 83 92
e 83 93
e 83 94
e 83 95
e 83 96
e 83 97
e 83 98
e 83 99
e 83 100
e 84 85
e 84 86
e 84 87
e 84 88
e 84 89
e 84 90
e 84 91
e 84 92
e 84 93
e 84 94
e 84 95
e 84 96
e 84 97
e 84 98
e 84 99
e 84 100
e 85 86
e 85 87
e 85 88
e 85 89
e 85 90
e 85 91
e 85 92
e 85 93
e 85 94
e 85 95
e 85 96
e 85 97
e 85 98
e 85 100
e 86 87
e 86 88
e 86 89
e 86 90
e 86 91
e 86 92
e 86 93
e 86 94
e 86 95
e 86 96
e 86 97
e 86 98
e 86 99
e 86 100
e 87 88
e 87 89
e 87 90
e 87 91
e 87 92
e 87 93
e 87 94
e 87 95
e 87 97
e 87 98
e 87 99
e 87 100
e 88 89
e 88 90
e 88 91
e 88 92
e 88 93
e 88 94
e 88 95
e 88 96
e 88 97
e 88 98
e 88 99
e 88 100
e 89 90
e 89 91
e 89 92
e 89 93
e 89 94
e 89 95
e 89 96
e 89 97
e 89 98
e 89 99
e 89 100
e 90 91
e 90 92
e 90 93
e 90 94
e 90 95
e 90 96
e 90 97
e 90 98
e 90 99
e 90 100
e 91 92
e 91 93
e 91 94
e 91 96
e 91 97
e 91 98
e 91 99
e 92 93
e 92 94
e 92 95
e 92 96
e 92 97
e 92 98
e 92 99
e 92 100
e 93 94
e 93 95
e 93 96
e 93 97
e 93 98
e 93 100
e 94 95
e 94 96
e 94 97
e 94 98
e 94 99
e 94 100
e 95 96
e 95 97
e 95 98
e 95 99
e 95 100
e 96 97
e 96 98
e 96 100
e 97 98
e 97 99
e 97 100
e 98 99
e 98 100
e 99 100
